p cnf 50 800
1 -50 -48 0
1 -50 -32 0
1 -50 -29 0
1 -50 -28 0
1 -50 -27 0
1 -50 -25 0
1 -50 -17 0
1 -50 4 0
1 -50 5 0
1 -50 18 0
1 -50 21 0
1 -50 34 0
1 -50 36 0
1 -50 38 0
1 -50 45 0
1 -50 48 0
1 -49 -47 0
1 -49 -36 0
1 -49 -35 0
1 -49 -29 0
1 -49 -26 0
1 -49 -22 0
1 -49 -19 0
1 -49 -18 0
1 -49 -9 0
1 -49 -6 0
1 -49 6 0
1 -49 8 0
1 -49 17 0
1 -49 25 0
1 -49 26 0
1 -49 34 0
1 -48 -47 0
1 -48 -45 0
1 -48 -44 0
1 -48 -14 0
1 -48 -9 0
1 -48 -5 0
1 -48 1 0
1 -48 4 0
1 -48 6 0
1 -48 24 0
1 -48 25 0
1 -48 28 0
1 -48 33 0
1 -48 34 0
1 -48 50 0
1 -47 -36 0
1 -47 -31 0
1 -47 -30 0
1 -47 -25 0
1 -47 -21 0
1 -47 -10 0
1 -47 -4 0
1 -47 -2 0
1 -47 1 0
1 -47 14 0
1 -47 24 0
1 -47 27 0
1 -47 41 0
1 -47 43 0
1 -46 -36 0
1 -46 -29 0
1 -46 -28 0
1 -46 -14 0
1 -46 -11 0
1 -46 6 0
1 -46 7 0
1 -46 9 0
1 -46 10 0
1 -46 11 0
1 -46 17 0
1 -46 26 0
1 -46 35 0
1 -46 39 0
1 -46 40 0
1 -46 50 0
1 -45 -42 0
1 -45 -31 0
1 -45 -23 0
1 -45 -21 0
1 -45 -4 0
1 -45 -3 0
1 -45 2 0
1 -45 3 0
1 -45 4 0
1 -45 7 0
1 -45 8 0
1 -45 14 0
1 -45 18 0
1 -45 43 0
1 -45 46 0
1 -44 -42 0
1 -44 -40 0
1 -44 -6 0
1 -44 1 0
1 -44 7 0
1 -44 17 0
1 -44 20 0
1 -44 24 0
1 -44 26 0
1 -44 27 0
1 -44 33 0
1 -44 35 0
1 -44 38 0
1 -44 42 0
1 -44 45 0
1 -43 -31 0
1 -43 -30 0
1 -43 -19 0
1 -43 -1 0
1 -43 6 0
1 -43 13 0
1 -43 18 0
1 -43 19 0
1 -43 21 0
1 -43 23 0
1 -43 28 0
1 -43 31 0
1 -43 33 0
1 -43 34 0
1 -43 37 0
1 -43 44 0
1 -42 -41 0
1 -42 -37 0
1 -42 -34 0
1 -42 -21 0
1 -42 -11 0
1 -42 7 0
1 -42 12 0
1 -42 23 0
1 -42 26 0
1 -42 31 0
1 -42 32 0
1 -42 35 0
1 -42 44 0
1 -42 46 0
1 -41 -40 0
1 -41 -35 0
1 -41 -30 0
1 -41 -29 0
1 -41 -23 0
1 -41 -22 0
1 -41 -21 0
1 -41 -15 0
1 -41 -14 0
1 -41 -8 0
1 -41 -4 0
1 -41 -1 0
1 -41 7 0
1 -41 16 0
1 -41 34 0
1 -40 -39 0
1 -40 -38 0
1 -40 -26 0
1 -40 -12 0
1 -40 10 0
1 -40 14 0
1 -40 19 0
1 -40 20 0
1 -40 21 0
1 -40 28 0
1 -40 31 0
1 -40 37 0
1 -40 41 0
1 -40 43 0
1 -39 -37 0
1 -39 -35 0
1 -39 -33 0
1 -39 -27 0
1 -39 -25 0
1 -39 -16 0
1 -39 -15 0
1 -39 -5 0
1 -39 -1 0
1 -39 4 0
1 -39 7 0
1 -39 9 0
1 -39 14 0
1 -39 29 0
1 -39 33 0
1 -38 -30 0
1 -38 -25 0
1 -38 -23 0
1 -38 -20 0
1 -38 -15 0
1 -38 -14 0
1 -38 -12 0
1 -38 -11 0
1 -38 8 0
1 -38 10 0
1 -38 12 0
1 -38 24 0
1 -38 26 0
1 -38 32 0
1 -38 42 0
1 -37 -35 0
1 -37 -25 0
1 -37 -12 0
1 -37 -10 0
1 -37 -6 0
1 -37 8 0
1 -37 15 0
1 -37 20 0
1 -37 21 0
1 -37 26 0
1 -37 27 0
1 -37 32 0
1 -37 42 0
1 -37 46 0
1 -36 -14 0
1 -36 -10 0
1 -36 -5 0
1 -36 -2 0
1 -36 8 0
1 -36 14 0
1 -36 15 0
1 -36 16 0
1 -36 32 0
1 -36 41 0
1 -36 43 0
1 -36 45 0
1 -36 48 0
1 -35 -34 0
1 -35 -32 0
1 -35 -19 0
1 -35 -11 0
1 -35 -9 0
1 -35 4 0
1 -35 13 0
1 -35 21 0
1 -35 24 0
1 -35 29 0
1 -35 34 0
1 -35 40 0
1 -34 -29 0
1 -34 -20 0
1 -34 -18 0
1 -34 5 0
1 -34 8 0
1 -34 19 0
1 -34 20 0
1 -34 22 0
1 -34 25 0
1 -34 26 0
1 -34 35 0
1 -34 37 0
1 -34 42 0
1 -34 50 0
1 -33 -13 0
1 -33 -12 0
1 -33 -5 0
1 -33 -2 0
1 -33 15 0
1 -33 19 0
1 -33 20 0
1 -33 22 0
1 -33 24 0
1 -33 28 0
1 -33 30 0
1 -33 32 0
1 -33 35 0
1 -33 37 0
1 -33 39 0
1 -32 -30 0
1 -32 -23 0
1 -32 -22 0
1 -32 -19 0
1 -32 -16 0
1 -32 -6 0
1 -32 -5 0
1 -32 3 0
1 -32 15 0
1 -32 29 0
1 -32 30 0
1 -32 36 0
1 -32 42 0
1 -32 43 0
1 -31 -26 0
1 -31 -23 0
1 -31 -20 0
1 -31 -17 0
1 -31 -15 0
1 -31 -3 0
1 -31 1 0
1 -31 7 0
1 -31 11 0
1 -31 20 0
1 -31 21 0
1 -31 39 0
1 -31 50 0
1 -30 -28 0
1 -30 -23 0
1 -30 -13 0
1 -30 -9 0
1 -30 -7 0
1 -30 -3 0
1 -30 3 0
1 -30 36 0
1 -30 40 0
1 -30 44 0
1 -30 46 0
1 -29 -27 0
1 -29 -16 0
1 -29 3 0
1 -29 13 0
1 -29 28 0
1 -29 34 0
1 -29 35 0
1 -29 37 0
1 -29 42 0
1 -29 43 0
1 -29 49 0
1 -28 -26 0
1 -28 -21 0
1 -28 -13 0
1 -28 -6 0
1 -28 -5 0
1 -28 -4 0
1 -28 -3 0
1 -28 22 0
1 -28 27 0
1 -28 31 0
1 -28 35 0
1 -28 38 0
1 -28 41 0
1 -27 -24 0
1 -27 -23 0
1 -27 -20 0
1 -27 -7 0
1 -27 2 0
1 -27 5 0
1 -27 8 0
1 -27 9 0
1 -27 16 0
1 -27 30 0
1 -27 46 0
1 -27 49 0
1 -27 50 0
1 -26 -25 0
1 -26 -22 0
1 -26 -12 0
1 -26 -10 0
1 -26 -7 0
1 -26 -6 0
1 -26 -5 0
1 -26 14 0
1 -26 22 0
1 -26 24 0
1 -26 39 0
1 -26 48 0
1 -25 -23 0
1 -25 -20 0
1 -25 -14 0
1 -25 -13 0
1 -25 -12 0
1 -25 -2 0
1 -25 24 0
1 -25 35 0
1 -25 43 0
1 -25 46 0
1 -24 -19 0
1 -24 -18 0
1 -24 -15 0
1 -24 -5 0
1 -24 1 0
1 -24 16 0
1 -24 25 0
1 -24 28 0
1 -24 33 0
1 -24 35 0
1 -24 37 0
1 -24 42 0
1 -24 44 0
1 -24 45 0
1 -24 48 0
1 -23 -19 0
1 -23 -10 0
1 -23 -9 0
1 -23 -8 0
1 -23 -6 0
1 -23 10 0
1 -23 31 0
1 -23 34 0
1 -22 -21 0
1 -22 -4 0
1 -22 -3 0
1 -22 -2 0
1 -22 -1 0
1 -22 3 0
1 -22 18 0
1 -22 27 0
1 -22 30 0
1 -22 31 0
1 -22 40 0
1 -22 44 0
1 -21 -15 0
1 -21 -14 0
1 -21 1 0
1 -21 2 0
1 -21 10 0
1 -21 17 0
1 -21 29 0
1 -21 41 0
1 -21 44 0
1 -21 47 0
1 -20 -10 0
1 -20 -8 0
1 -20 -1 0
1 -20 2 0
1 -20 5 0
1 -20 15 0
1 -20 23 0
1 -20 25 0
1 -20 27 0
1 -20 45 0
1 -20 49 0
1 -19 -18 0
1 -19 -8 0
1 -19 -1 0
1 -19 9 0
1 -19 13 0
1 -19 16 0
1 -19 18 0
1 -19 25 0
1 -19 46 0
1 -19 49 0
1 -18 -17 0
1 -18 -12 0
1 -18 -9 0
1 -18 -3 0
1 -18 3 0
1 -18 7 0
1 -18 12 0
1 -18 17 0
1 -18 41 0
1 -18 48 0
1 -18 49 0
1 -18 50 0
1 -17 -14 0
1 -17 -1 0
1 -17 1 0
1 -17 16 0
1 -17 22 0
1 -17 24 0
1 -17 25 0
1 -17 27 0
1 -17 28 0
1 -17 36 0
1 -17 44 0
1 -17 45 0
1 -17 48 0
1 -16 -10 0
1 -16 -6 0
1 -16 5 0
1 -16 11 0
1 -16 19 0
1 -16 20 0
1 -16 21 0
1 -16 28 0
1 -16 41 0
1 -16 42 0
1 -16 46 0
1 -16 47 0
1 -16 48 0
1 -15 -14 0
1 -15 -9 0
1 -15 -4 0
1 -15 7 0
1 -15 16 0
1 -15 21 0
1 -15 25 0
1 -15 32 0
1 -15 33 0
1 -15 47 0
1 -14 -11 0
1 -14 -10 0
1 -14 -6 0
1 -14 5 0
1 -14 8 0
1 -14 27 0
1 -14 31 0
1 -13 -1 0
1 -13 1 0
1 -13 7 0
1 -13 8 0
1 -13 9 0
1 -13 14 0
1 -13 16 0
1 -13 28 0
1 -13 31 0
1 -13 37 0
1 -13 38 0
1 -13 42 0
1 -12 4 0
1 -12 11 0
1 -12 14 0
1 -12 18 0
1 -12 19 0
1 -12 24 0
1 -12 26 0
1 -12 38 0
1 -12 48 0
1 -11 -9 0
1 -11 -6 0
1 -11 -1 0
1 -11 1 0
1 -11 3 0
1 -11 10 0
1 -11 18 0
1 -11 33 0
1 -11 34 0
1 -11 41 0
1 -11 49 0
1 -10 -2 0
1 -10 4 0
1 -10 6 0
1 -10 11 0
1 -10 12 0
1 -10 15 0
1 -10 29 0
1 -10 38 0
1 -9 5 0
1 -9 13 0
1 -9 17 0
1 -9 25 0
1 -9 26 0
1 -9 35 0
1 -9 43 0
1 -9 47 0
1 -8 -2 0
1 -8 14 0
1 -8 16 0
1 -8 27 0
1 -8 30 0
1 -8 32 0
1 -8 33 0
1 -8 34 0
1 -8 44 0
1 -8 45 0
1 -8 47 0
1 -8 49 0
1 -7 -5 0
1 -7 -1 0
1 -7 2 0
1 -7 10 0
1 -7 11 0
1 -7 15 0
1 -7 16 0
1 -7 30 0
1 -7 36 0
1 -7 37 0
1 -7 39 0
1 -7 43 0
1 -7 45 0
1 -6 15 0
1 -6 25 0
1 -6 32 0
1 -6 37 0
1 -6 40 0
1 -6 50 0
1 -5 1 0
1 -5 2 0
1 -5 9 0
1 -5 19 0
1 -5 22 0
1 -5 29 0
1 -5 32 0
1 -4 6 0
1 -4 9 0
1 -4 12 0
1 -4 15 0
1 -4 17 0
1 -4 18 0
1 -4 30 0
1 -4 33 0
1 -4 35 0
1 -4 42 0
1 -3 5 0
1 -3 7 0
1 -3 10 0
1 -3 14 0
1 -3 27 0
1 -3 29 0
1 -3 30 0
1 -3 31 0
1 -3 34 0
1 -3 50 0
1 -2 9 0
1 -2 10 0
1 -2 11 0
1 -2 12 0
1 -2 13 0
1 -2 19 0
1 -2 20 0
1 -2 36 0
1 -2 48 0
1 -1 10 0
1 -1 25 0
1 -1 40 0
1 -1 44 0
1 -1 45 0
1 -1 47 0
1 1 13 0
1 1 15 0
1 1 17 0
1 1 36 0
1 1 40 0
1 1 46 0
1 2 3 0
1 2 8 0
1 2 9 0
1 2 22 0
1 2 23 0
1 2 26 0
1 2 29 0
1 2 41 0
1 2 47 0
1 2 48 0
1 3 8 0
1 3 12 0
1 3 13 0
1 3 15 0
1 3 21 0
1 3 24 0
1 3 44 0
1 3 47 0
1 4 9 0
1 4 13 0
1 4 15 0
1 4 21 0
1 4 23 0
1 4 29 0
1 4 34 0
1 4 49 0
1 4 50 0
1 5 6 0
1 5 10 0
1 5 11 0
1 5 21 0
1 5 29 0
1 5 36 0
1 5 40 0
1 5 41 0
1 6 14 0
1 6 17 0
1 6 18 0
1 6 19 0
1 6 22 0
1 6 23 0
1 6 24 0
1 6 31 0
1 6 39 0
1 7 23 0
1 7 26 0
1 7 39 0
1 7 44 0
1 7 46 0
1 8 19 0
1 8 23 0
1 8 28 0
1 8 41 0
1 8 47 0
1 9 18 0
1 9 35 0
1 9 39 0
1 9 40 0
1 9 42 0
1 9 47 0
1 10 20 0
1 10 22 0
1 10 34 0
1 10 36 0
1 10 48 0
1 11 12 0
1 11 14 0
1 11 20 0
1 11 23 0
1 11 33 0
1 11 35 0
1 11 39 0
1 11 49 0
1 12 23 0
1 12 24 0
1 12 30 0
1 12 31 0
1 12 33 0
1 12 40 0
1 12 47 0
1 12 50 0
1 13 18 0
1 13 23 0
1 13 27 0
1 13 36 0
1 13 37 0
1 13 43 0
1 13 47 0
1 14 18 0
1 14 21 0
1 14 22 0
1 14 50 0
1 15 30 0
1 15 31 0
1 15 32 0
1 15 40 0
1 16 17 0
1 16 19 0
1 16 30 0
1 16 32 0
1 16 47 0
1 16 50 0
1 17 18 0
1 17 23 0
1 17 33 0
1 17 39 0
1 17 42 0
1 17 46 0
1 18 32 0
1 18 37 0
1 18 40 0
1 19 20 0
1 19 29 0
1 19 38 0
1 19 39 0
1 19 42 0
1 20 21 0
1 20 24 0
1 20 27 0
1 20 44 0
1 20 49 0
1 21 26 0
1 21 29 0
1 21 48 0
1 22 26 0
1 22 30 0
1 22 31 0
1 22 33 0
1 22 40 0
1 22 41 0
1 23 25 0
1 23 38 0
1 23 39 0
1 23 50 0
1 24 35 0
1 24 43 0
1 25 36 0
1 25 41 0
1 25 44 0
1 25 46 0
1 26 36 0
1 26 37 0
1 26 45 0
1 27 28 0
1 27 30 0
1 27 31 0
1 27 37 0
1 28 29 0
1 28 31 0
1 28 38 0
1 28 39 0
1 28 40 0
1 29 36 0
1 29 39 0
1 29 47 0
1 30 38 0
1 30 43 0
1 30 45 0
1 31 41 0
1 32 38 0
1 32 45 0
1 32 49 0
1 32 50 0
1 33 34 0
1 33 39 0
1 33 49 0
1 34 38 0
1 34 46 0
1 35 40 0
1 35 43 0
1 36 39 0
1 36 42 0
1 36 45 0
1 37 40 0
1 37 42 0
1 37 44 0
1 38 45 0
1 38 48 0
1 38 49 0
1 38 50 0
1 41 43 0
1 41 49 0
1 42 48 0
1 43 48 0
1 43 49 0
1 44 46 0
1 44 47 0
1 45 46 0
1 45 47 0
1 46 50 0
1 48 49 0
